49 73 24 24 36 43 63 30 51 65 85 32 33 48 36 41 88 46 28 94 46 14 97 97 34 
32 23 39 11 52 77 20 15 25 75 46 68 53 77 31 87 57 32 30 97 84 72 22 53 97 
87 79 27 48 36 19 17 26 60 92 38 63 67 17 71 76 76 79 20 82 65 60 53 16 49 
51 80 92 80 76 23 33 78 88 25 80 50 50 36 75 60 26 84 38 26 23 68 36 80 78 
718.00
